120
150
54
42
54
46
50
59
57
40
51
60
41
50
46
54
48
51
51
40
40
40
42
60
48
50
54
46
49
46
55
40
40
40
48
43
59
53
47
50
40
57
54
50
46
45
51
54
40
54
57
46
47
51
54
45
46
50
54
40
40
40
55
46
49
46
46
59
40
51
51
51
48
54
51
45
40
40
40
46
44
60
56
41
53
40
40
40
59
42
49
45
54
51
40
40
40
53
52
45
45
54
51
55
44
47
53
40
58
40
53
42
55
46
54
50
40
56
54
41
50
59
